Maximize
 obj: - z0 - z1 - z2 - z3 - z4 - z5 - z6 - z7 - z8 - z9 - z10 - z11 - z12 - z13 - z14 - z15 - z16 - z17 - z18 - z19 - z20 - z21 - z22 - z23 - z24 + 25
Subject To
 c0: x00 + x01 + x02 + x03 = 1
 c1: x10 + x11 + x12 + x13 = 1
 c2: x20 + x21 + x22 + x23 = 1
 c3: x30 + x31 + x32 + x33 = 1
 c4: x40 + x41 + x42 + x43 = 1
 c5: x50 + x51 + x52 + x53 = 1
 c6: x60 + x61 + x62 + x63 = 1
 c7: x70 + x71 + x72 + x73 = 1
 c8: x80 + x81 + x82 + x83 = 1
 c9: x90 + x91 + x92 + x93 = 1
 c10: x100 + x101 + x102 + x103 = 1
 c11: x110 + x111 + x112 + x113 = 1
 c12: x120 + x121 + x122 + x123 = 1
 c13: x130 + x131 + x132 + x133 = 1
 c14: x140 + x141 + x142 + x143 = 1
 c15: x150 + x151 + x152 + x153 = 1
 c16: x160 + x161 + x162 + x163 = 1
 c17: x170 + x171 + x172 + x173 = 1
 c18: x180 + x181 + x182 + x183 = 1
 c19: x190 + x191 + x192 + x193 = 1
 c20: x200 + x201 + x202 + x203 = 1
 c21: x210 + x211 + x212 + x213 = 1
 c22: x220 + x221 + x222 + x223 = 1
 c23: x230 + x231 + x232 + x233 = 1
 c24: x240 + x241 + x242 + x243 = 1
 c25: x00 + x161 - z0 <= 1
 c26: x00 + x170 - z0 <= 1
 c27: x01 + x170 - z0 <= 1
 c28: x01 + x171 - z0 <= 1
 c29: x02 + x170 - z0 <= 1
 c30: x02 + x171 - z0 <= 1
 c31: x02 + x172 - z0 <= 1
 c32: x02 + x173 - z0 <= 1
 c33: x02 + x200 - z0 <= 1
 c34: x02 + x201 - z0 <= 1
 c35: x02 + x241 - z0 <= 1
 c36: x03 + x111 - z0 <= 1
 c37: x03 + x131 - z0 <= 1
 c38: x03 + x161 - z0 <= 1
 c39: x03 + x162 - z0 <= 1
 c40: x03 + x170 - z0 <= 1
 c41: x03 + x173 - z0 <= 1
 c42: x03 + x200 - z0 <= 1
 c43: x03 + x240 - z0 <= 1
 c44: x03 + x241 - z0 <= 1
 c45: x10 + x93 - z1 <= 1
 c46: x10 + x120 - z1 <= 1
 c47: x10 + x121 - z1 <= 1
 c48: x10 + x122 - z1 <= 1
 c49: x10 + x123 - z1 <= 1
 c50: x10 + x152 - z1 <= 1
 c51: x10 + x153 - z1 <= 1
 c52: x10 + x212 - z1 <= 1
 c53: x11 + x92 - z1 <= 1
 c54: x11 + x93 - z1 <= 1
 c55: x11 + x100 - z1 <= 1
 c56: x11 + x121 - z1 <= 1
 c57: x11 + x122 - z1 <= 1
 c58: x11 + x140 - z1 <= 1
 c59: x11 + x143 - z1 <= 1
 c60: x11 + x152 - z1 <= 1
 c61: x11 + x190 - z1 <= 1
 c62: x11 + x193 - z1 <= 1
 c63: x12 + x100 - z1 <= 1
 c64: x12 + x103 - z1 <= 1
 c65: x12 + x122 - z1 <= 1
 c66: x12 + x143 - z1 <= 1
 c67: x12 + x193 - z1 <= 1
 c68: x12 + x220 - z1 <= 1
 c69: x12 + x221 - z1 <= 1
 c70: x13 + x122 - z1 <= 1
 c71: x13 + x123 - z1 <= 1
 c72: x13 + x220 - z1 <= 1
 c73: x20 + x160 - z2 <= 1
 c74: x21 + x160 - z2 <= 1
 c75: x21 + x161 - z2 <= 1
 c76: x22 + x110 - z2 <= 1
 c77: x22 + x111 - z2 <= 1
 c78: x22 + x130 - z2 <= 1
 c79: x22 + x160 - z2 <= 1
 c80: x22 + x161 - z2 <= 1
 c81: x22 + x162 - z2 <= 1
 c82: x22 + x163 - z2 <= 1
 c83: x23 + x110 - z2 <= 1
 c84: x23 + x160 - z2 <= 1
 c85: x23 + x163 - z2 <= 1
 c86: x30 + x40 - z3 <= 1
 c87: x30 + x60 - z3 <= 1
 c88: x30 + x61 - z3 <= 1
 c89: x30 + x62 - z3 <= 1
 c90: x30 + x63 - z3 <= 1
 c91: x30 + x180 - z3 <= 1
 c92: x30 + x181 - z3 <= 1
 c93: x31 + x40 - z3 <= 1
 c94: x31 + x41 - z3 <= 1
 c95: x31 + x61 - z3 <= 1
 c96: x31 + x62 - z3 <= 1
 c97: x31 + x181 - z3 <= 1
 c98: x32 + x40 - z3 <= 1
 c99: x32 + x41 - z3 <= 1
 c100: x32 + x42 - z3 <= 1
 c101: x32 + x43 - z3 <= 1
 c102: x32 + x51 - z3 <= 1
 c103: x32 + x62 - z3 <= 1
 c104: x32 + x181 - z3 <= 1
 c105: x32 + x182 - z3 <= 1
 c106: x33 + x40 - z3 <= 1
 c107: x33 + x43 - z3 <= 1
 c108: x33 + x50 - z3 <= 1
 c109: x33 + x51 - z3 <= 1
 c110: x33 + x62 - z3 <= 1
 c111: x33 + x63 - z3 <= 1
 c112: x33 + x71 - z3 <= 1
 c113: x33 + x180 - z3 <= 1
 c114: x33 + x181 - z3 <= 1
 c115: x33 + x182 - z3 <= 1
 c116: x33 + x183 - z3 <= 1
 c117: x40 + x30 - z4 <= 1
 c118: x40 + x31 - z4 <= 1
 c119: x40 + x32 - z4 <= 1
 c120: x40 + x33 - z4 <= 1
 c121: x40 + x60 - z4 <= 1
 c122: x40 + x61 - z4 <= 1
 c123: x40 + x62 - z4 <= 1
 c124: x40 + x63 - z4 <= 1
 c125: x40 + x181 - z4 <= 1
 c126: x41 + x31 - z4 <= 1
 c127: x41 + x32 - z4 <= 1
 c128: x41 + x61 - z4 <= 1
 c129: x41 + x62 - z4 <= 1
 c130: x42 + x32 - z4 <= 1
 c131: x42 + x62 - z4 <= 1
 c132: x43 + x32 - z4 <= 1
 c133: x43 + x33 - z4 <= 1
 c134: x43 + x51 - z4 <= 1
 c135: x43 + x62 - z4 <= 1
 c136: x43 + x63 - z4 <= 1
 c137: x43 + x71 - z4 <= 1
 c138: x43 + x181 - z4 <= 1
 c139: x43 + x182 - z4 <= 1
 c140: x50 + x33 - z5 <= 1
 c141: x50 + x63 - z5 <= 1
 c142: x50 + x70 - z5 <= 1
 c143: x50 + x71 - z5 <= 1
 c144: x50 + x72 - z5 <= 1
 c145: x50 + x73 - z5 <= 1
 c146: x50 + x80 - z5 <= 1
 c147: x50 + x180 - z5 <= 1
 c148: x50 + x181 - z5 <= 1
 c149: x50 + x182 - z5 <= 1
 c150: x50 + x183 - z5 <= 1
 c151: x51 + x32 - z5 <= 1
 c152: x51 + x33 - z5 <= 1
 c153: x51 + x43 - z5 <= 1
 c154: x51 + x62 - z5 <= 1
 c155: x51 + x63 - z5 <= 1
 c156: x51 + x71 - z5 <= 1
 c157: x51 + x72 - z5 <= 1
 c158: x51 + x80 - z5 <= 1
 c159: x51 + x81 - z5 <= 1
 c160: x51 + x181 - z5 <= 1
 c161: x51 + x182 - z5 <= 1
 c162: x52 + x72 - z5 <= 1
 c163: x52 + x80 - z5 <= 1
 c164: x52 + x81 - z5 <= 1
 c165: x52 + x82 - z5 <= 1
 c166: x52 + x83 - z5 <= 1
 c167: x52 + x182 - z5 <= 1
 c168: x53 + x72 - z5 <= 1
 c169: x53 + x73 - z5 <= 1
 c170: x53 + x80 - z5 <= 1
 c171: x53 + x83 - z5 <= 1
 c172: x53 + x182 - z5 <= 1
 c173: x53 + x183 - z5 <= 1
 c174: x60 + x30 - z6 <= 1
 c175: x60 + x40 - z6 <= 1
 c176: x60 + x180 - z6 <= 1
 c177: x60 + x181 - z6 <= 1
 c178: x61 + x30 - z6 <= 1
 c179: x61 + x31 - z6 <= 1
 c180: x61 + x40 - z6 <= 1
 c181: x61 + x41 - z6 <= 1
 c182: x61 + x181 - z6 <= 1
 c183: x62 + x30 - z6 <= 1
 c184: x62 + x31 - z6 <= 1
 c185: x62 + x32 - z6 <= 1
 c186: x62 + x33 - z6 <= 1
 c187: x62 + x40 - z6 <= 1
 c188: x62 + x41 - z6 <= 1
 c189: x62 + x42 - z6 <= 1
 c190: x62 + x43 - z6 <= 1
 c191: x62 + x51 - z6 <= 1
 c192: x62 + x181 - z6 <= 1
 c193: x62 + x182 - z6 <= 1
 c194: x63 + x30 - z6 <= 1
 c195: x63 + x33 - z6 <= 1
 c196: x63 + x40 - z6 <= 1
 c197: x63 + x43 - z6 <= 1
 c198: x63 + x50 - z6 <= 1
 c199: x63 + x51 - z6 <= 1
 c200: x63 + x71 - z6 <= 1
 c201: x63 + x180 - z6 <= 1
 c202: x63 + x181 - z6 <= 1
 c203: x63 + x182 - z6 <= 1
 c204: x63 + x183 - z6 <= 1
 c205: x70 + x50 - z7 <= 1
 c206: x70 + x180 - z7 <= 1
 c207: x70 + x183 - z7 <= 1
 c208: x71 + x33 - z7 <= 1
 c209: x71 + x43 - z7 <= 1
 c210: x71 + x50 - z7 <= 1
 c211: x71 + x51 - z7 <= 1
 c212: x71 + x63 - z7 <= 1
 c213: x71 + x80 - z7 <= 1
 c214: x71 + x180 - z7 <= 1
 c215: x71 + x181 - z7 <= 1
 c216: x71 + x182 - z7 <= 1
 c217: x71 + x183 - z7 <= 1
 c218: x72 + x50 - z7 <= 1
 c219: x72 + x51 - z7 <= 1
 c220: x72 + x52 - z7 <= 1
 c221: x72 + x53 - z7 <= 1
 c222: x72 + x80 - z7 <= 1
 c223: x72 + x83 - z7 <= 1
 c224: x72 + x182 - z7 <= 1
 c225: x72 + x183 - z7 <= 1
 c226: x73 + x50 - z7 <= 1
 c227: x73 + x53 - z7 <= 1
 c228: x73 + x183 - z7 <= 1
 c229: x80 + x50 - z8 <= 1
 c230: x80 + x51 - z8 <= 1
 c231: x80 + x52 - z8 <= 1
 c232: x80 + x53 - z8 <= 1
 c233: x80 + x71 - z8 <= 1
 c234: x80 + x72 - z8 <= 1
 c235: x80 + x182 - z8 <= 1
 c236: x80 + x183 - z8 <= 1
 c237: x81 + x51 - z8 <= 1
 c238: x81 + x52 - z8 <= 1
 c239: x81 + x182 - z8 <= 1
 c240: x82 + x52 - z8 <= 1
 c241: x83 + x52 - z8 <= 1
 c242: x83 + x53 - z8 <= 1
 c243: x83 + x72 - z8 <= 1
 c244: x90 + x113 - z9 <= 1
 c245: x90 + x120 - z9 <= 1
 c246: x90 + x121 - z9 <= 1
 c247: x90 + x133 - z9 <= 1
 c248: x90 + x150 - z9 <= 1
 c249: x90 + x151 - z9 <= 1
 c250: x90 + x211 - z9 <= 1
 c251: x91 + x112 - z9 <= 1
 c252: x91 + x113 - z9 <= 1
 c253: x91 + x121 - z9 <= 1
 c254: x91 + x132 - z9 <= 1
 c255: x91 + x133 - z9 <= 1
 c256: x91 + x140 - z9 <= 1
 c257: x91 + x151 - z9 <= 1
 c258: x91 + x190 - z9 <= 1
 c259: x91 + x203 - z9 <= 1
 c260: x91 + x230 - z9 <= 1
 c261: x91 + x243 - z9 <= 1
 c262: x92 + x11 - z9 <= 1
 c263: x92 + x121 - z9 <= 1
 c264: x92 + x122 - z9 <= 1
 c265: x92 + x140 - z9 <= 1
 c266: x92 + x143 - z9 <= 1
 c267: x92 + x151 - z9 <= 1
 c268: x92 + x152 - z9 <= 1
 c269: x92 + x190 - z9 <= 1
 c270: x92 + x193 - z9 <= 1
 c271: x92 + x230 - z9 <= 1
 c272: x92 + x233 - z9 <= 1
 c273: x93 + x10 - z9 <= 1
 c274: x93 + x11 - z9 <= 1
 c275: x93 + x120 - z9 <= 1
 c276: x93 + x121 - z9 <= 1
 c277: x93 + x122 - z9 <= 1
 c278: x93 + x123 - z9 <= 1
 c279: x93 + x150 - z9 <= 1
 c280: x93 + x151 - z9 <= 1
 c281: x93 + x152 - z9 <= 1
 c282: x93 + x153 - z9 <= 1
 c283: x93 + x211 - z9 <= 1
 c284: x93 + x212 - z9 <= 1
 c285: x100 + x11 - z10 <= 1
 c286: x100 + x12 - z10 <= 1
 c287: x100 + x122 - z10 <= 1
 c288: x100 + x142 - z10 <= 1
 c289: x100 + x143 - z10 <= 1
 c290: x100 + x192 - z10 <= 1
 c291: x100 + x193 - z10 <= 1
 c292: x100 + x221 - z10 <= 1
 c293: x100 + x233 - z10 <= 1
 c294: x101 + x142 - z10 <= 1
 c295: x101 + x192 - z10 <= 1
 c296: x101 + x232 - z10 <= 1
 c297: x101 + x233 - z10 <= 1
 c298: x103 + x12 - z10 <= 1
 c299: x103 + x221 - z10 <= 1
 c300: x103 + x222 - z10 <= 1
 c301: x110 + x22 - z11 <= 1
 c302: x110 + x23 - z11 <= 1
 c303: x110 + x130 - z11 <= 1
 c304: x110 + x160 - z11 <= 1
 c305: x110 + x163 - z11 <= 1
 c306: x111 + x03 - z11 <= 1
 c307: x111 + x22 - z11 <= 1
 c308: x111 + x130 - z11 <= 1
 c309: x111 + x131 - z11 <= 1
 c310: x111 + x160 - z11 <= 1
 c311: x111 + x161 - z11 <= 1
 c312: x111 + x162 - z11 <= 1
 c313: x111 + x163 - z11 <= 1
 c314: x111 + x170 - z11 <= 1
 c315: x111 + x173 - z11 <= 1
 c316: x111 + x200 - z11 <= 1
 c317: x111 + x240 - z11 <= 1
 c318: x112 + x91 - z11 <= 1
 c319: x112 + x130 - z11 <= 1
 c320: x112 + x131 - z11 <= 1
 c321: x112 + x132 - z11 <= 1
 c322: x112 + x133 - z11 <= 1
 c323: x112 + x151 - z11 <= 1
 c324: x112 + x162 - z11 <= 1
 c325: x112 + x163 - z11 <= 1
 c326: x112 + x173 - z11 <= 1
 c327: x112 + x200 - z11 <= 1
 c328: x112 + x203 - z11 <= 1
 c329: x112 + x240 - z11 <= 1
 c330: x112 + x243 - z11 <= 1
 c331: x113 + x90 - z11 <= 1
 c332: x113 + x91 - z11 <= 1
 c333: x113 + x130 - z11 <= 1
 c334: x113 + x133 - z11 <= 1
 c335: x113 + x150 - z11 <= 1
 c336: x113 + x151 - z11 <= 1
 c337: x113 + x163 - z11 <= 1
 c338: x120 + x10 - z12 <= 1
 c339: x120 + x90 - z12 <= 1
 c340: x120 + x93 - z12 <= 1
 c341: x120 + x150 - z12 <= 1
 c342: x120 + x151 - z12 <= 1
 c343: x120 + x152 - z12 <= 1
 c344: x120 + x153 - z12 <= 1
 c345: x120 + x210 - z12 <= 1
 c346: x120 + x211 - z12 <= 1
 c347: x120 + x212 - z12 <= 1
 c348: x120 + x213 - z12 <= 1
 c349: x121 + x10 - z12 <= 1
 c350: x121 + x11 - z12 <= 1
 c351: x121 + x90 - z12 <= 1
 c352: x121 + x91 - z12 <= 1
 c353: x121 + x92 - z12 <= 1
 c354: x121 + x93 - z12 <= 1
 c355: x121 + x140 - z12 <= 1
 c356: x121 + x151 - z12 <= 1
 c357: x121 + x152 - z12 <= 1
 c358: x121 + x190 - z12 <= 1
 c359: x121 + x193 - z12 <= 1
 c360: x121 + x211 - z12 <= 1
 c361: x121 + x212 - z12 <= 1
 c362: x122 + x10 - z12 <= 1
 c363: x122 + x11 - z12 <= 1
 c364: x122 + x12 - z12 <= 1
 c365: x122 + x13 - z12 <= 1
 c366: x122 + x92 - z12 <= 1
 c367: x122 + x93 - z12 <= 1
 c368: x122 + x100 - z12 <= 1
 c369: x122 + x140 - z12 <= 1
 c370: x122 + x143 - z12 <= 1
 c371: x122 + x152 - z12 <= 1
 c372: x122 + x193 - z12 <= 1
 c373: x122 + x212 - z12 <= 1
 c374: x122 + x220 - z12 <= 1
 c375: x122 + x221 - z12 <= 1
 c376: x123 + x10 - z12 <= 1
 c377: x123 + x13 - z12 <= 1
 c378: x123 + x93 - z12 <= 1
 c379: x123 + x152 - z12 <= 1
 c380: x123 + x153 - z12 <= 1
 c381: x123 + x212 - z12 <= 1
 c382: x123 + x213 - z12 <= 1
 c383: x123 + x220 - z12 <= 1
 c384: x130 + x22 - z13 <= 1
 c385: x130 + x110 - z13 <= 1
 c386: x130 + x111 - z13 <= 1
 c387: x130 + x112 - z13 <= 1
 c388: x130 + x113 - z13 <= 1
 c389: x130 + x162 - z13 <= 1
 c390: x130 + x163 - z13 <= 1
 c391: x130 + x240 - z13 <= 1
 c392: x130 + x243 - z13 <= 1
 c393: x131 + x03 - z13 <= 1
 c394: x131 + x111 - z13 <= 1
 c395: x131 + x112 - z13 <= 1
 c396: x131 + x162 - z13 <= 1
 c397: x131 + x170 - z13 <= 1
 c398: x131 + x173 - z13 <= 1
 c399: x131 + x200 - z13 <= 1
 c400: x131 + x203 - z13 <= 1
 c401: x131 + x240 - z13 <= 1
 c402: x131 + x241 - z13 <= 1
 c403: x131 + x242 - z13 <= 1
 c404: x131 + x243 - z13 <= 1
 c405: x132 + x91 - z13 <= 1
 c406: x132 + x112 - z13 <= 1
 c407: x132 + x173 - z13 <= 1
 c408: x132 + x190 - z13 <= 1
 c409: x132 + x191 - z13 <= 1
 c410: x132 + x203 - z13 <= 1
 c411: x132 + x242 - z13 <= 1
 c412: x132 + x243 - z13 <= 1
 c413: x133 + x90 - z13 <= 1
 c414: x133 + x91 - z13 <= 1
 c415: x133 + x112 - z13 <= 1
 c416: x133 + x113 - z13 <= 1
 c417: x133 + x151 - z13 <= 1
 c418: x133 + x190 - z13 <= 1
 c419: x133 + x211 - z13 <= 1
 c420: x133 + x243 - z13 <= 1
 c421: x140 + x11 - z14 <= 1
 c422: x140 + x91 - z14 <= 1
 c423: x140 + x92 - z14 <= 1
 c424: x140 + x121 - z14 <= 1
 c425: x140 + x122 - z14 <= 1
 c426: x140 + x190 - z14 <= 1
 c427: x140 + x193 - z14 <= 1
 c428: x140 + x230 - z14 <= 1
 c429: x140 + x233 - z14 <= 1
 c430: x141 + x190 - z14 <= 1
 c431: x141 + x191 - z14 <= 1
 c432: x141 + x192 - z14 <= 1
 c433: x141 + x193 - z14 <= 1
 c434: x141 + x230 - z14 <= 1
 c435: x141 + x231 - z14 <= 1
 c436: x141 + x232 - z14 <= 1
 c437: x141 + x233 - z14 <= 1
 c438: x142 + x100 - z14 <= 1
 c439: x142 + x101 - z14 <= 1
 c440: x142 + x192 - z14 <= 1
 c441: x142 + x193 - z14 <= 1
 c442: x142 + x221 - z14 <= 1
 c443: x142 + x232 - z14 <= 1
 c444: x142 + x233 - z14 <= 1
 c445: x143 + x11 - z14 <= 1
 c446: x143 + x12 - z14 <= 1
 c447: x143 + x92 - z14 <= 1
 c448: x143 + x100 - z14 <= 1
 c449: x143 + x122 - z14 <= 1
 c450: x143 + x193 - z14 <= 1
 c451: x143 + x220 - z14 <= 1
 c452: x143 + x221 - z14 <= 1
 c453: x143 + x233 - z14 <= 1
 c454: x150 + x90 - z15 <= 1
 c455: x150 + x93 - z15 <= 1
 c456: x150 + x113 - z15 <= 1
 c457: x150 + x120 - z15 <= 1
 c458: x150 + x210 - z15 <= 1
 c459: x150 + x211 - z15 <= 1
 c460: x151 + x90 - z15 <= 1
 c461: x151 + x91 - z15 <= 1
 c462: x151 + x92 - z15 <= 1
 c463: x151 + x93 - z15 <= 1
 c464: x151 + x112 - z15 <= 1
 c465: x151 + x113 - z15 <= 1
 c466: x151 + x120 - z15 <= 1
 c467: x151 + x121 - z15 <= 1
 c468: x151 + x133 - z15 <= 1
 c469: x151 + x211 - z15 <= 1
 c470: x152 + x10 - z15 <= 1
 c471: x152 + x11 - z15 <= 1
 c472: x152 + x92 - z15 <= 1
 c473: x152 + x93 - z15 <= 1
 c474: x152 + x120 - z15 <= 1
 c475: x152 + x121 - z15 <= 1
 c476: x152 + x122 - z15 <= 1
 c477: x152 + x123 - z15 <= 1
 c478: x152 + x211 - z15 <= 1
 c479: x152 + x212 - z15 <= 1
 c480: x153 + x10 - z15 <= 1
 c481: x153 + x93 - z15 <= 1
 c482: x153 + x120 - z15 <= 1
 c483: x153 + x123 - z15 <= 1
 c484: x153 + x210 - z15 <= 1
 c485: x153 + x211 - z15 <= 1
 c486: x153 + x212 - z15 <= 1
 c487: x153 + x213 - z15 <= 1
 c488: x160 + x20 - z16 <= 1
 c489: x160 + x21 - z16 <= 1
 c490: x160 + x22 - z16 <= 1
 c491: x160 + x23 - z16 <= 1
 c492: x160 + x110 - z16 <= 1
 c493: x160 + x111 - z16 <= 1
 c494: x161 + x00 - z16 <= 1
 c495: x161 + x03 - z16 <= 1
 c496: x161 + x21 - z16 <= 1
 c497: x161 + x22 - z16 <= 1
 c498: x161 + x111 - z16 <= 1
 c499: x161 + x170 - z16 <= 1
 c500: x161 + x240 - z16 <= 1
 c501: x162 + x03 - z16 <= 1
 c502: x162 + x22 - z16 <= 1
 c503: x162 + x111 - z16 <= 1
 c504: x162 + x112 - z16 <= 1
 c505: x162 + x130 - z16 <= 1
 c506: x162 + x131 - z16 <= 1
 c507: x162 + x170 - z16 <= 1
 c508: x162 + x173 - z16 <= 1
 c509: x162 + x200 - z16 <= 1
 c510: x162 + x240 - z16 <= 1
 c511: x162 + x243 - z16 <= 1
 c512: x163 + x22 - z16 <= 1
 c513: x163 + x23 - z16 <= 1
 c514: x163 + x110 - z16 <= 1
 c515: x163 + x111 - z16 <= 1
 c516: x163 + x112 - z16 <= 1
 c517: x163 + x113 - z16 <= 1
 c518: x163 + x130 - z16 <= 1
 c519: x170 + x00 - z17 <= 1
 c520: x170 + x01 - z17 <= 1
 c521: x170 + x02 - z17 <= 1
 c522: x170 + x03 - z17 <= 1
 c523: x170 + x111 - z17 <= 1
 c524: x170 + x131 - z17 <= 1
 c525: x170 + x161 - z17 <= 1
 c526: x170 + x162 - z17 <= 1
 c527: x170 + x200 - z17 <= 1
 c528: x170 + x240 - z17 <= 1
 c529: x170 + x241 - z17 <= 1
 c530: x171 + x01 - z17 <= 1
 c531: x171 + x02 - z17 <= 1
 c532: x171 + x200 - z17 <= 1
 c533: x171 + x201 - z17 <= 1
 c534: x171 + x241 - z17 <= 1
 c535: x172 + x02 - z17 <= 1
 c536: x172 + x200 - z17 <= 1
 c537: x172 + x201 - z17 <= 1
 c538: x172 + x202 - z17 <= 1
 c539: x172 + x203 - z17 <= 1
 c540: x172 + x241 - z17 <= 1
 c541: x172 + x242 - z17 <= 1
 c542: x173 + x02 - z17 <= 1
 c543: x173 + x03 - z17 <= 1
 c544: x173 + x111 - z17 <= 1
 c545: x173 + x112 - z17 <= 1
 c546: x173 + x131 - z17 <= 1
 c547: x173 + x132 - z17 <= 1
 c548: x173 + x162 - z17 <= 1
 c549: x173 + x200 - z17 <= 1
 c550: x173 + x203 - z17 <= 1
 c551: x173 + x240 - z17 <= 1
 c552: x173 + x241 - z17 <= 1
 c553: x173 + x242 - z17 <= 1
 c554: x173 + x243 - z17 <= 1
 c555: x180 + x30 - z18 <= 1
 c556: x180 + x33 - z18 <= 1
 c557: x180 + x50 - z18 <= 1
 c558: x180 + x60 - z18 <= 1
 c559: x180 + x63 - z18 <= 1
 c560: x180 + x70 - z18 <= 1
 c561: x180 + x71 - z18 <= 1
 c562: x181 + x30 - z18 <= 1
 c563: x181 + x31 - z18 <= 1
 c564: x181 + x32 - z18 <= 1
 c565: x181 + x33 - z18 <= 1
 c566: x181 + x40 - z18 <= 1
 c567: x181 + x43 - z18 <= 1
 c568: x181 + x50 - z18 <= 1
 c569: x181 + x51 - z18 <= 1
 c570: x181 + x60 - z18 <= 1
 c571: x181 + x61 - z18 <= 1
 c572: x181 + x62 - z18 <= 1
 c573: x181 + x63 - z18 <= 1
 c574: x181 + x71 - z18 <= 1
 c575: x182 + x32 - z18 <= 1
 c576: x182 + x33 - z18 <= 1
 c577: x182 + x43 - z18 <= 1
 c578: x182 + x50 - z18 <= 1
 c579: x182 + x51 - z18 <= 1
 c580: x182 + x52 - z18 <= 1
 c581: x182 + x53 - z18 <= 1
 c582: x182 + x62 - z18 <= 1
 c583: x182 + x63 - z18 <= 1
 c584: x182 + x71 - z18 <= 1
 c585: x182 + x72 - z18 <= 1
 c586: x182 + x80 - z18 <= 1
 c587: x182 + x81 - z18 <= 1
 c588: x183 + x33 - z18 <= 1
 c589: x183 + x50 - z18 <= 1
 c590: x183 + x53 - z18 <= 1
 c591: x183 + x63 - z18 <= 1
 c592: x183 + x70 - z18 <= 1
 c593: x183 + x71 - z18 <= 1
 c594: x183 + x72 - z18 <= 1
 c595: x183 + x73 - z18 <= 1
 c596: x183 + x80 - z18 <= 1
 c597: x190 + x11 - z19 <= 1
 c598: x190 + x91 - z19 <= 1
 c599: x190 + x92 - z19 <= 1
 c600: x190 + x121 - z19 <= 1
 c601: x190 + x132 - z19 <= 1
 c602: x190 + x133 - z19 <= 1
 c603: x190 + x140 - z19 <= 1
 c604: x190 + x141 - z19 <= 1
 c605: x190 + x230 - z19 <= 1
 c606: x191 + x132 - z19 <= 1
 c607: x191 + x141 - z19 <= 1
 c608: x191 + x230 - z19 <= 1
 c609: x191 + x231 - z19 <= 1
 c610: x192 + x100 - z19 <= 1
 c611: x192 + x101 - z19 <= 1
 c612: x192 + x141 - z19 <= 1
 c613: x192 + x142 - z19 <= 1
 c614: x192 + x230 - z19 <= 1
 c615: x192 + x231 - z19 <= 1
 c616: x192 + x232 - z19 <= 1
 c617: x192 + x233 - z19 <= 1
 c618: x193 + x11 - z19 <= 1
 c619: x193 + x12 - z19 <= 1
 c620: x193 + x92 - z19 <= 1
 c621: x193 + x100 - z19 <= 1
 c622: x193 + x121 - z19 <= 1
 c623: x193 + x122 - z19 <= 1
 c624: x193 + x140 - z19 <= 1
 c625: x193 + x141 - z19 <= 1
 c626: x193 + x142 - z19 <= 1
 c627: x193 + x143 - z19 <= 1
 c628: x193 + x230 - z19 <= 1
 c629: x193 + x233 - z19 <= 1
 c630: x200 + x02 - z20 <= 1
 c631: x200 + x03 - z20 <= 1
 c632: x200 + x111 - z20 <= 1
 c633: x200 + x112 - z20 <= 1
 c634: x200 + x131 - z20 <= 1
 c635: x200 + x162 - z20 <= 1
 c636: x200 + x170 - z20 <= 1
 c637: x200 + x171 - z20 <= 1
 c638: x200 + x172 - z20 <= 1
 c639: x200 + x173 - z20 <= 1
 c640: x200 + x240 - z20 <= 1
 c641: x200 + x241 - z20 <= 1
 c642: x200 + x242 - z20 <= 1
 c643: x200 + x243 - z20 <= 1
 c644: x201 + x02 - z20 <= 1
 c645: x201 + x171 - z20 <= 1
 c646: x201 + x172 - z20 <= 1
 c647: x201 + x241 - z20 <= 1
 c648: x201 + x242 - z20 <= 1
 c649: x202 + x172 - z20 <= 1
 c650: x202 + x242 - z20 <= 1
 c651: x203 + x91 - z20 <= 1
 c652: x203 + x112 - z20 <= 1
 c653: x203 + x131 - z20 <= 1
 c654: x203 + x132 - z20 <= 1
 c655: x203 + x172 - z20 <= 1
 c656: x203 + x173 - z20 <= 1
 c657: x203 + x242 - z20 <= 1
 c658: x203 + x243 - z20 <= 1
 c659: x210 + x120 - z21 <= 1
 c660: x210 + x150 - z21 <= 1
 c661: x210 + x153 - z21 <= 1
 c662: x211 + x90 - z21 <= 1
 c663: x211 + x93 - z21 <= 1
 c664: x211 + x120 - z21 <= 1
 c665: x211 + x121 - z21 <= 1
 c666: x211 + x133 - z21 <= 1
 c667: x211 + x150 - z21 <= 1
 c668: x211 + x151 - z21 <= 1
 c669: x211 + x152 - z21 <= 1
 c670: x211 + x153 - z21 <= 1
 c671: x212 + x10 - z21 <= 1
 c672: x212 + x93 - z21 <= 1
 c673: x212 + x120 - z21 <= 1
 c674: x212 + x121 - z21 <= 1
 c675: x212 + x122 - z21 <= 1
 c676: x212 + x123 - z21 <= 1
 c677: x212 + x152 - z21 <= 1
 c678: x212 + x153 - z21 <= 1
 c679: x213 + x120 - z21 <= 1
 c680: x213 + x123 - z21 <= 1
 c681: x213 + x153 - z21 <= 1
 c682: x220 + x12 - z22 <= 1
 c683: x220 + x13 - z22 <= 1
 c684: x220 + x122 - z22 <= 1
 c685: x220 + x123 - z22 <= 1
 c686: x220 + x143 - z22 <= 1
 c687: x221 + x12 - z22 <= 1
 c688: x221 + x100 - z22 <= 1
 c689: x221 + x103 - z22 <= 1
 c690: x221 + x122 - z22 <= 1
 c691: x221 + x142 - z22 <= 1
 c692: x221 + x143 - z22 <= 1
 c693: x221 + x233 - z22 <= 1
 c694: x222 + x103 - z22 <= 1
 c695: x230 + x91 - z23 <= 1
 c696: x230 + x92 - z23 <= 1
 c697: x230 + x140 - z23 <= 1
 c698: x230 + x141 - z23 <= 1
 c699: x230 + x190 - z23 <= 1
 c700: x230 + x191 - z23 <= 1
 c701: x230 + x192 - z23 <= 1
 c702: x230 + x193 - z23 <= 1
 c703: x231 + x141 - z23 <= 1
 c704: x231 + x191 - z23 <= 1
 c705: x231 + x192 - z23 <= 1
 c706: x232 + x101 - z23 <= 1
 c707: x232 + x141 - z23 <= 1
 c708: x232 + x142 - z23 <= 1
 c709: x232 + x192 - z23 <= 1
 c710: x233 + x92 - z23 <= 1
 c711: x233 + x100 - z23 <= 1
 c712: x233 + x101 - z23 <= 1
 c713: x233 + x140 - z23 <= 1
 c714: x233 + x141 - z23 <= 1
 c715: x233 + x142 - z23 <= 1
 c716: x233 + x143 - z23 <= 1
 c717: x233 + x192 - z23 <= 1
 c718: x233 + x193 - z23 <= 1
 c719: x233 + x221 - z23 <= 1
 c720: x240 + x03 - z24 <= 1
 c721: x240 + x111 - z24 <= 1
 c722: x240 + x112 - z24 <= 1
 c723: x240 + x130 - z24 <= 1
 c724: x240 + x131 - z24 <= 1
 c725: x240 + x161 - z24 <= 1
 c726: x240 + x162 - z24 <= 1
 c727: x240 + x170 - z24 <= 1
 c728: x240 + x173 - z24 <= 1
 c729: x240 + x200 - z24 <= 1
 c730: x241 + x02 - z24 <= 1
 c731: x241 + x03 - z24 <= 1
 c732: x241 + x131 - z24 <= 1
 c733: x241 + x170 - z24 <= 1
 c734: x241 + x171 - z24 <= 1
 c735: x241 + x172 - z24 <= 1
 c736: x241 + x173 - z24 <= 1
 c737: x241 + x200 - z24 <= 1
 c738: x241 + x201 - z24 <= 1
 c739: x242 + x131 - z24 <= 1
 c740: x242 + x132 - z24 <= 1
 c741: x242 + x172 - z24 <= 1
 c742: x242 + x173 - z24 <= 1
 c743: x242 + x200 - z24 <= 1
 c744: x242 + x201 - z24 <= 1
 c745: x242 + x202 - z24 <= 1
 c746: x242 + x203 - z24 <= 1
 c747: x243 + x91 - z24 <= 1
 c748: x243 + x112 - z24 <= 1
 c749: x243 + x130 - z24 <= 1
 c750: x243 + x131 - z24 <= 1
 c751: x243 + x132 - z24 <= 1
 c752: x243 + x133 - z24 <= 1
 c753: x243 + x162 - z24 <= 1
 c754: x243 + x173 - z24 <= 1
 c755: x243 + x200 - z24 <= 1
 c756: x243 + x203 - z24 <= 1
Binary
 x00
 x01
 x02
 x03
 z0
 x10
 x11
 x12
 x13
 z1
 x20
 x21
 x22
 x23
 z2
 x30
 x31
 x32
 x33
 z3
 x40
 x41
 x42
 x43
 z4
 x50
 x51
 x52
 x53
 z5
 x60
 x61
 x62
 x63
 z6
 x70
 x71
 x72
 x73
 z7
 x80
 x81
 x82
 x83
 z8
 x90
 x91
 x92
 x93
 z9
 x100
 x101
 x102
 x103
 z10
 x110
 x111
 x112
 x113
 z11
 x120
 x121
 x122
 x123
 z12
 x130
 x131
 x132
 x133
 z13
 x140
 x141
 x142
 x143
 z14
 x150
 x151
 x152
 x153
 z15
 x160
 x161
 x162
 x163
 z16
 x170
 x171
 x172
 x173
 z17
 x180
 x181
 x182
 x183
 z18
 x190
 x191
 x192
 x193
 z19
 x200
 x201
 x202
 x203
 z20
 x210
 x211
 x212
 x213
 z21
 x220
 x221
 x222
 x223
 z22
 x230
 x231
 x232
 x233
 z23
 x240
 x241
 x242
 x243
 z24
End